
m = 10;

n = 10;

Amin = 40;

Amax = 50;

B = 1920;

lambda = 20.00;

c = 
[[4,3,9,9,10,4,7,9,9,6],
[5,2,8,2,4,2,4,5,8,4],
[10,7,3,4,3,8,4,4,4,9],
[5,4,8,10,9,5,2,6,4,7],
[10,5,7,5,6,7,6,6,10,3],
[8,9,6,8,9,7,5,10,9,5],
[8,10,7,3,8,4,7,8,8,7],
[2,5,10,7,8,3,4,10,8,10],
[2,3,9,4,9,5,9,4,4,6],
[5,8,3,2,10,9,4,4,4,8]];
